SumColouring/JavaBacktracker/RandomInstances/12_0.25_2.col
c File: instances/12_0.25_2.col
c
c Description: Random graph of size 12 vertices and P(0.25) of edges between any two vertices.
p col 12 66
e 1 2
e 1 5
e 1 7
e 1 12
e 2 7
e 2 9
e 2 10
e 2 11
e 2 12
e 3 4
e 3 7
e 4 10
e 4 11
e 4 12
e 6 7
e 10 11
e 10 12