SumColouring/MiniZinc model/Experiments/12_0.25_2.col.dzn
% Data file generated from RandomInstances/12_0.25_2.col DIMACS file
size = 12;

chi = 3;

adjacency = [|0,1,0,0,1,0,1,0,0,0,0,1,
|1,0,0,0,0,0,1,0,1,1,1,1,
|0,0,0,1,0,0,1,0,0,0,0,0,
|0,0,1,0,0,0,0,0,0,1,1,1,
|1,0,0,0,0,0,0,0,0,0,0,0,
|0,0,0,0,0,0,1,0,0,0,0,0,
|1,1,1,0,0,1,0,0,0,0,0,0,
|0,0,0,0,0,0,0,0,0,0,0,0,
|0,1,0,0,0,0,0,0,0,0,0,0,
|0,1,0,1,0,0,0,0,0,0,1,1,
|0,1,0,1,0,0,0,0,0,1,0,0,
|1,1,0,1,0,0,0,0,0,1,0,0,
|];